c generated by generate.py on 2024-12-25 09:46:57
c negative instance
p edge 80 283
e 1 22
e 1 24
e 1 28
e 1 30
e 1 44
e 1 48
e 2 13
e 2 25
e 2 59
e 2 61
e 2 75
e 3 15
e 3 17
e 3 35
e 3 40
e 3 52
e 3 58
e 3 59
e 3 61
e 3 74
e 3 78
e 4 5
e 4 6
e 4 8
e 4 10
e 4 16
e 4 22
e 4 57
e 4 63
e 5 8
e 5 28
e 5 34
e 5 40
e 5 71
e 6 38
e 6 44
e 7 24
e 7 26
e 7 30
e 7 40
e 7 48
e 7 74
e 7 75
e 7 76
e 8 21
e 8 23
e 8 50
e 8 64
e 8 73
e 8 77
e 9 17
e 9 20
e 9 32
e 9 33
e 9 42
e 9 63
e 10 15
e 10 18
e 10 27
e 10 32
e 10 61
e 10 62
e 10 67
e 10 79
e 11 13
e 11 27
e 11 61
e 11 77
e 12 14
e 12 17
e 12 19
e 12 20
e 12 25
e 12 38
e 12 40
e 12 54
e 12 62
e 12 65
e 12 67
e 12 69
e 12 70
e 13 16
e 13 25
e 13 42
e 13 46
e 13 48
e 13 72
e 13 80
e 14 17
e 14 39
e 14 54
e 15 18
e 15 24
e 15 50
e 15 53
e 15 69
e 15 75
e 16 32
e 16 44
e 16 46
e 16 58
e 16 59
e 17 25
e 17 53
e 17 57
e 17 72
e 18 39
e 18 42
e 18 43
e 18 44
e 18 53
e 18 63
e 18 64
e 18 73
e 18 76
e 18 77
e 19 21
e 19 29
e 19 39
e 19 51
e 19 59
e 19 74
e 20 36
e 20 40
e 20 45
e 20 56
e 20 67
e 20 68
e 20 78
e 21 31
e 21 32
e 21 34
e 21 37
e 21 39
e 22 25
e 22 28
e 22 49
e 22 66
e 22 79
e 23 34
e 23 37
e 23 42
e 23 47
e 23 49
e 23 62
e 23 63
e 23 64
e 23 69
e 24 35
e 24 36
e 24 51
e 24 62
e 25 36
e 25 46
e 25 54
e 25 65
e 25 66
e 25 73
e 26 29
e 26 30
e 26 53
e 26 54
e 26 57
e 26 65
e 27 32
e 27 42
e 27 51
e 27 64
e 27 69
e 27 70
e 27 74
e 28 41
e 28 51
e 28 52
e 28 67
e 29 69
e 30 55
e 30 64
e 30 73
e 30 76
e 31 32
e 31 33
e 31 37
e 31 38
e 31 39
e 31 48
e 31 51
e 31 54
e 31 66
e 31 74
e 31 76
e 32 36
e 32 40
e 32 56
e 32 65
e 32 73
e 32 74
e 33 53
e 33 57
e 33 70
e 34 37
e 34 41
e 34 49
e 34 60
e 34 80
e 35 60
e 36 55
e 36 68
e 37 40
e 37 65
e 37 70
e 37 75
e 37 77
e 38 76
e 39 56
e 40 53
e 40 61
e 40 72
e 41 51
e 41 68
e 42 47
e 42 69
e 42 72
e 42 77
e 43 46
e 43 61
e 43 63
e 43 74
e 44 57
e 44 59
e 45 46
e 45 66
e 45 78
e 46 51
e 46 64
e 46 67
e 46 76
e 47 59
e 47 64
e 47 77
e 47 79
e 48 52
e 48 80
e 49 68
e 49 72
e 50 55
e 50 66
e 51 54
e 51 57
e 52 59
e 52 60
e 52 66
e 52 75
e 53 76
e 54 59
e 54 64
e 54 72
e 55 57
e 55 63
e 56 68
e 56 72
e 56 78
e 57 69
e 57 71
e 57 74
e 59 66
e 59 67
e 59 76
e 61 63
e 63 66
e 63 73
e 64 69
e 64 75
e 65 67
e 66 69
e 66 79
e 67 70
e 68 70
e 68 74
e 73 80
e 76 77
e 77 79
e 78 80
